c ! encoding i-pc 116
p cnf 132 149
82 -118 0
32 -119 0
31 -121 0
-31 -123 0
124 -126 0
-32 -127 0
-82 -131 0
-1 0
-2 0
3 0
4 0
-5 0
-6 0
7 0
-8 0
-9 0
10 0
-11 0
12 0
-13 0
-14 0
-15 0
-16 0
17 0
18 0
-19 0
20 0
-21 0
-23 0
-24 0
-28 0
-29 0
-30 0
-33 0
-34 0
-35 0
36 0
-37 0
-38 0
-39 0
-40 0
41 0
-43 0
-46 0
-47 0
-48 0
-50 0
-51 0
54 0
57 0
-58 0
-59 0
-60 0
-62 0
-63 0
-64 0
-65 0
-66 0
68 0
-70 0
-71 0
-72 0
-73 0
-74 0
75 0
-76 0
-77 0
-78 0
-79 0
-80 0
81 0
-83 0
-84 0
-85 0
-86 0
87 0
-89 0
-90 0
91 0
-92 0
-93 0
-94 0
-95 0
-97 0
-98 0
100 0
101 0
-102 0
103 0
104 0
-105 0
106 0
-107 0
-108 0
-109 0
-110 0
111 0
-112 0
-113 0
-114 0
115 0
-116 0
-131 132 0
-130 131 0
-22 122 0
88 122 0
-120 121 0
26 122 0
-96 120 0
55 122 0
-88 120 0
-44 122 0
-55 120 0
52 122 0
49 120 0
-49 122 0
-27 122 0
96 122 0
-99 122 0
-53 120 0
-42 122 0
-25 120 0
22 120 0
27 120 0
56 120 0
99 120 0
25 122 0
-26 120 0
-56 122 0
53 122 0
42 120 0
-45 120 0
69 120 0
61 122 0
-67 122 0
-52 120 0
-61 120 0
-69 122 0
-122 123 0
-128 130 0
45 122 0
-126 127 0
-127 128 0
44 120 0
67 120 0
8 125 0
-125 126 0
-117 118 119 0
90 129 0
